NAME : mtspf.pid12707.gtsp.241592061.tour
COMMENT : Length = 241592061
COMMENT : Found by LKH [Keld Helsgaun] Sat Mar  1 01:26:32 2025
TYPE : TOUR
DIMENSION : 135
TOUR_SECTION
1
13
52
53
54
55
123
120
121
122
44
45
46
47
17
18
19
16
14
97
98
99
96
24
25
26
27
4
102
103
100
101
86
87
84
85
8
9
133
134
135
132
10
83
80
81
82
127
124
125
126
12
59
56
57
58
20
21
22
23
60
61
62
63
111
108
109
110
5
128
129
130
131
66
67
64
65
31
28
29
30
88
89
90
91
95
92
93
94
71
68
69
70
38
39
36
37
11
40
41
42
43
2
114
115
112
113
116
117
118
119
104
105
106
107
79
76
77
78
7
33
34
35
32
15
48
49
50
51
6
75
72
73
74
3
-1
EOF
